JOBS = 1..3;
MACHINES = 1..5;
SPEED = 1;
time = array3d(JOBS,MACHINES,1..SPEED,[24,46,67,92,84,34,90,38,21,35,56,64,47,75,93]);
energy = array3d(JOBS,MACHINES,1..SPEED,[78,63,51,39,43,71,40,68,81,70,57,52,62,47,39]);
precedence = array2d(JOBS,MACHINES,[0,4,2,1,3,2,3,1,0,4,2,1,0,4,3]);
ME = 1;
TE = 117;
st_old = array2d(JOBS,MACHINES,[0,344,193,24,260,167,254,47,0,355,111,47,0,315,167]);
SpeedScaling = array2d(JOBS,MACHINES,[1,1,1,1,1,1,1,1,1,1,1,1,1,1,1]);
